r = [
0,14,35,37,37,14,30,23,7,15,10,9,20,34,23,8,19,5,25,14,10,9,5,22,29,2,0
];
p = [
0,13,1,30,30,7,18,9,23,8,7,21,14,29,14,13,16,16,30,1,29,14,1,6,20,4,0
];
e = [
0,17,6,6,8,16,14,20,5,12,18,8,14,4,14,9,3,20,16,3,5,19,3,6,14,5,0
];
d = [
0,385,328,423,441,298,334,314,348,280,313,417,336,383,292,282,354,349,418,436,398,413,330,405,274,308,456
];
d_bar = [
0,392,329,438,456,302,343,319,360,284,317,428,343,398,299,289,362,357,433,437,413,420,331,408,284,310,456
];
w = [
0,2.428571429,6,0.4,0.533333333,4,1.555555556,4,0.416666667,3,4.5,0.727272727,2,0.266666667,2,1.285714286,0.375,2.5,1.066666667,3,0.333333333,2.714285714,3,2,1.4,2.5,0
];
